(set-info :smt-lib-version 2.6)
(set-logic UF)
(set-info :source |Benchmarks from the paper: "Extending Sledgehammer with SMT Solvers" by Jasmin Blanchette, Sascha Bohme, and Lawrence C. Paulson, CADE 2011.  Translated to SMT2 by Andrew Reynolds and Morgan Deters.|)
(set-info :category "industrial")
(set-info :status unknown)
(declare-sort S1 0)
(declare-sort S2 0)
(declare-sort S3 0)
(declare-sort S4 0)
(declare-sort S5 0)
(declare-sort S6 0)
(declare-sort S7 0)
(declare-sort S8 0)
(declare-sort S9 0)
(declare-sort S10 0)
(declare-sort S11 0)
(declare-sort S12 0)
(declare-sort S13 0)
(declare-sort S14 0)
(declare-sort S15 0)
(declare-sort S16 0)
(declare-sort S17 0)
(declare-sort S18 0)
(declare-fun f1 () S1)
(declare-fun f2 () S1)
(declare-fun f3 (S2 S3 S4 S5 S6) S1)
(declare-fun f4 () S2)
(declare-fun f5 () S3)
(declare-fun f6 () S4)
(declare-fun f7 (S7 S5) S5)
(declare-fun f8 (S8 S9) S7)
(declare-fun f9 (S10 S5) S8)
(declare-fun f10 () S10)
(declare-fun f11 () S5)
(declare-fun f12 () S9)
(declare-fun f13 () S5)
(declare-fun f14 () S6)
(declare-fun f15 (S2 S6 S6) S1)
(declare-fun f16 () S6)
(declare-fun f17 () S9)
(declare-fun f18 () S3)
(declare-fun f19 () S5)
(declare-fun f20 (S11 S2) S1)
(declare-fun f21 () S11)
(declare-fun f22 (S2 S4 S12) S1)
(declare-fun f23 (S13 S14) S12)
(declare-fun f24 (S15 S3) S13)
(declare-fun f25 () S15)
(declare-fun f26 () S14)
(declare-fun f27 () S9)
(declare-fun f28 () S6)
(declare-fun f29 (S16 S17) S1)
(declare-fun f30 (S18 S18) S16)
(declare-fun f31 (S5 S12) S18)
(declare-fun f32 () S14)
(declare-fun f33 (S2) S17)
(declare-fun f34 (S2 S3) S1)
(declare-fun f35 (S2 S3 S14 S4) S1)
(declare-fun f36 (S12) S3)
(assert (not (= f1 f2)))
(assert (not (= (f3 f4 f5 f6 (f7 (f8 (f9 f10 f11) f12) f13) f14) f1)))
(assert (exists ((?v0 S6)) (and (= (f3 f4 f5 f6 f11 ?v0) f1) (= (f15 f4 ?v0 f16) f1))))
(assert (= (f3 f4 f5 f6 f13 f16) f1))
(assert (= f12 f17))
(assert (= (f3 f4 f5 f6 f13 f16) f1))
(assert (= f14 f16))
(assert (exists ((?v0 S6)) (and (= (f3 f4 f5 f6 f11 ?v0) f1) (= (f15 f4 ?v0 f16) f1))))
(assert (= (f3 f4 f18 f6 f13 f16) f1))
(assert (= (f3 f4 f18 f6 (f7 (f8 (f9 f10 f19) f12) f13) f14) f1))
(assert (= (f20 f21 f4) f1))
(assert (= (f3 f4 f18 f6 (f7 (f8 (f9 f10 f19) f12) f13) f14) f1))
(assert (= (f3 f4 f18 f6 f19 f16) f1))
(assert (forall ((?v0 S5) (?v1 S9) (?v2 S5) (?v3 S5) (?v4 S9) (?v5 S5)) (= (= (f7 (f8 (f9 f10 ?v0) ?v1) ?v2) (f7 (f8 (f9 f10 ?v3) ?v4) ?v5)) (and (= ?v0 ?v3) (and (= ?v1 ?v4) (= ?v2 ?v5))))))
(assert (forall ((?v0 S4) (?v1 S6)) (=> (= (f22 f4 ?v0 (f23 (f24 f25 f18) f26)) f1) (=> (= (f3 f4 f18 ?v0 f19 ?v1) f1) (exists ((?v2 S6)) (and (= (f3 f4 f5 ?v0 f11 ?v2) f1) (= (f15 f4 ?v2 ?v1) f1)))))))
(assert (forall ((?v0 S2) (?v1 S3) (?v2 S4) (?v3 S5) (?v4 S5)) (=> (= (f3 ?v0 ?v1 ?v2 ?v3 f16) f1) (=> (= (f3 ?v0 ?v1 ?v2 ?v4 f16) f1) (= (f3 ?v0 ?v1 ?v2 (f7 (f8 (f9 f10 ?v3) f17) ?v4) f16) f1)))))
(assert (= (f22 f4 f6 (f23 (f24 f25 f18) f26)) f1))
(assert (forall ((?v0 S2) (?v1 S3) (?v2 S4) (?v3 S5) (?v4 S6) (?v5 S5) (?v6 S6)) (=> (= (f3 ?v0 ?v1 ?v2 ?v3 ?v4) f1) (=> (= (f3 ?v0 ?v1 ?v2 ?v5 ?v6) f1) (= (f3 ?v0 ?v1 ?v2 (f7 (f8 (f9 f10 ?v3) f27) ?v5) f28) f1)))))
(assert (forall ((?v0 S4) (?v1 S6)) (=> (= (f22 f4 ?v0 (f23 (f24 f25 f18) f26)) f1) (=> (= (f3 f4 f18 ?v0 f19 ?v1) f1) (exists ((?v2 S6)) (and (= (f3 f4 f5 ?v0 f11 ?v2) f1) (= (f15 f4 ?v2 ?v1) f1)))))))
(assert (= (f29 (f30 (f31 f19 (f23 (f24 f25 f18) f26)) (f31 f11 (f23 (f24 f25 f5) f32))) (f33 f4)) f1))
(assert (= (f22 f4 f6 (f23 (f24 f25 f18) f26)) f1))
(assert (not (= f27 f17)))
(assert (not (= f17 f27)))
(assert (forall ((?v0 S9)) (=> (=> (= ?v0 f27) false) (=> (=> (= ?v0 f17) false) false))))
(assert (forall ((?v0 S2) (?v1 S3) (?v2 S4) (?v3 S5) (?v4 S9) (?v5 S5) (?v6 S6)) (=> (= (f3 ?v0 ?v1 ?v2 (f7 (f8 (f9 f10 ?v3) ?v4) ?v5) ?v6) f1) (=> (forall ((?v7 S6) (?v8 S6)) (=> (= ?v6 f28) (=> (= (f3 ?v0 ?v1 ?v2 ?v3 ?v7) f1) (=> (= (f3 ?v0 ?v1 ?v2 ?v5 ?v8) f1) (=> (= ?v4 f27) false))))) (=> (=> (= ?v6 f16) (=> (= (f3 ?v0 ?v1 ?v2 ?v3 f16) f1) (=> (= (f3 ?v0 ?v1 ?v2 ?v5 f16) f1) (=> (= ?v4 f17) false)))) false)))))
(assert (forall ((?v0 S5) (?v1 S12) (?v2 S5) (?v3 S12) (?v4 S2) (?v5 S9) (?v6 S5)) (let ((?v_0 (f33 ?v4))) (=> (= (f29 (f30 (f31 ?v0 ?v1) (f31 ?v2 ?v3)) ?v_0) f1) (= (f29 (f30 (f31 (f7 (f8 (f9 f10 ?v0) ?v5) ?v6) ?v1) (f31 (f7 (f8 (f9 f10 ?v2) ?v5) ?v6) ?v3)) ?v_0) f1)))))
(assert (forall ((?v0 S2) (?v1 S6)) (= (f15 ?v0 ?v1 ?v1) f1)))
(assert (forall ((?v0 S5) (?v1 S3) (?v2 S14) (?v3 S5) (?v4 S3) (?v5 S14) (?v6 S2) (?v7 S4) (?v8 S6)) (=> (= (f29 (f30 (f31 ?v0 (f23 (f24 f25 ?v1) ?v2)) (f31 ?v3 (f23 (f24 f25 ?v4) ?v5))) (f33 ?v6)) f1) (=> (= (f3 ?v6 ?v1 ?v7 ?v0 ?v8) f1) (=> (= (f34 ?v6 ?v1) f1) (= (f34 ?v6 ?v4) f1))))))
(assert (not (= f28 f16)))
(assert (not (= f16 f28)))
(assert (forall ((?v0 S5) (?v1 S3) (?v2 S14) (?v3 S5) (?v4 S3) (?v5 S14) (?v6 S2) (?v7 S4) (?v8 S6)) (=> (= (f29 (f30 (f31 ?v0 (f23 (f24 f25 ?v1) ?v2)) (f31 ?v3 (f23 (f24 f25 ?v4) ?v5))) (f33 ?v6)) f1) (=> (= (f3 ?v6 ?v1 ?v7 ?v0 ?v8) f1) (=> (= (f35 ?v6 ?v1 ?v2 ?v7) f1) (= (f35 ?v6 ?v4 ?v5 ?v7) f1))))))
(assert (forall ((?v0 S5) (?v1 S12) (?v2 S5) (?v3 S12) (?v4 S2) (?v5 S4) (?v6 S6)) (=> (= (f29 (f30 (f31 ?v0 ?v1) (f31 ?v2 ?v3)) (f33 ?v4)) f1) (=> (= (f3 ?v4 (f36 ?v1) ?v5 ?v0 ?v6) f1) (=> (= (f22 ?v4 ?v5 ?v1) f1) (= (f22 ?v4 ?v5 ?v3) f1))))))
(assert (forall ((?v0 S2) (?v1 S6) (?v2 S6) (?v3 S6)) (=> (= (f15 ?v0 ?v1 ?v2) f1) (=> (= (f15 ?v0 ?v2 ?v3) f1) (= (f15 ?v0 ?v1 ?v3) f1)))))
(check-sat)
(exit)
